NAME : n40w120.001.470.tour
COMMENT : Length = 470
COMMENT : Found by LKH [Keld Helsgaun] Tue Nov  7 19:38:47 2017
TYPE : TOUR
DIMENSION : 41
TOUR_SECTION
1
7
16
8
14
17
38
13
40
3
36
26
5
24
33
4
39
2
9
34
19
15
6
37
11
32
23
28
22
27
12
30
20
35
10
29
25
21
18
41
31
-1
EOF
